1000
[150,151,152,153,154,155,156,157,158,159,160,162,163,164,166,167,168,170,171,173,174,175,176,177,178,179,180,181,182,183,184,185,187,188,189,190,191,192,193,194,195,196,197,198,200]
[3,4,2,2,3,1,1,3,3,2,1,2,3,5,4,2,2,1,1,3,4,3,2,1,3,3,1,2,1,2,5,2,2,3,3,1,2,2,8,5,4,6,3,2,2]
